sat
(:max-memory         18.19
 :memory             18.04
 :nlsat-propagations 4
 :nlsat-stages       4
 :num-allocs         8250
 :rlimit-count       3158
 :time               0.00
 :total-time         0.02)
